18
1nap
H          0.00000        0.00000        0.00000
C         -1.06000        0.00000        0.00000
C         -1.75000        0.85000        0.85000
H         -1.22000        1.49000        1.49000
C         -3.13000        0.84000        0.84000
H         -3.66000        1.49000        1.49000
C         -3.82000        0.00000        0.00000
H         -4.88000        0.00000        0.00000
C         -3.13000       -0.85000       -0.85000
C         -1.75000       -0.85000       -0.85000
C         -1.06000       -1.69000       -1.69000
H          0.00000       -1.69000       -1.69000
C         -1.75000       -2.54000       -2.54000
H         -1.22000       -3.18000       -3.18000
C         -3.13000       -2.54000       -2.54000
H         -3.66000       -3.18000       -3.18000
C         -3.82000       -1.69000       -1.69000
H         -4.88000       -1.69000       -1.69000
