18
1nap
H          0.00000        0.00000        0.00000
C         -1.06000        0.00000        0.00000
C         -1.75000        0.85000        0.85000
H         -1.22000        1.49000        1.49000
C         -3.13000        0.84000        0.84000
H         -3.66000        1.49000        1.49000
C         -3.82000        0.00000        0.00000
H         -4.88000        0.00000        0.00000
C         -3.13000       -0.85000       -0.85000
C         -1.75000       -0.85000       -0.85000
C         -1.06000       -1.69000       -1.69000
H          0.00000       -1.69000       -1.69000
C         -1.75000       -2.54000       -2.54000
H         -1.22000       -3.18000       -3.18000
C         -3.13000       -2.54000       -2.54000
H         -3.66000       -3.18000       -3.18000
C         -3.82000       -1.69000       -1.69000
H         -4.88000       -1.69000       -1.69000
18
35diMePh.log	Energy: -195078.3408453
H          0.00223        2.86379       -0.00078
C          0.00195        1.80379       -0.00049
C          1.20384        1.11347       -0.00030
H          2.10908        1.64323       -0.00045
C          1.18933       -0.26653        0.00007
C          2.49021       -1.01688        0.00028
H          2.80836       -1.19668        1.03977
H          2.36267       -1.97698       -0.52272
H          3.26111       -0.42722       -0.51607
C          0.00121       -0.95621        0.00026
H          0.00092       -2.01621        0.00055
C         -1.20069       -0.26588        0.00007
C         -2.48783       -1.01554        0.00028
H         -2.80607       -1.19517        1.03977
H         -3.25841       -0.42547       -0.51607
H         -2.36081       -1.97571       -0.52272
C         -1.20032        1.11412       -0.00030
H         -2.10527        1.64436       -0.00045
12
4ClPh.log	Energy: -434135.4811766
H          0.00146       -3.30655       -0.00000
C          0.00146       -2.24655       -0.00000
C          1.20355       -1.55655       -0.00000
H          2.10864       -2.08655       -0.00000
C          1.18940       -0.17655       -0.00000
H          2.10864        0.35345       -0.00000
C          0.00146        0.51345       -0.00000
Cl         0.00146        2.23345       -0.00000
C         -1.20062       -0.17655        0.00000
H         -2.10572        0.35345        0.00000
C         -1.20062       -1.55655        0.00000
H         -2.10572       -2.08655        0.00000
16
4MeOPh.log	Energy: -217592.9778048
H         -0.22457       -3.29241       -0.00000
C         -0.22457       -2.23241       -0.00000
C          0.97751       -1.54241       -0.00000
H          1.88261       -2.07241       -0.00000
C          0.96337       -0.16241       -0.00000
H          1.88261        0.36759        0.00000
C         -0.22457        0.52759        0.00000
O         -0.22457        1.91759        0.00000
C          1.11894        2.40759        0.00000
H          1.10479        3.50759        0.00000
H          1.63512        2.04759        0.89803
H          1.63512        2.04759       -0.89803
C         -1.42665       -0.16241       -0.00000
H         -2.33175        0.36759        0.00000
C         -1.42665       -1.54241       -0.00000
H         -2.33175       -2.07241       -0.00000
15
4MePh.log	Energy: -170406.4312837
H          2.93180       -0.00090        0.00000
C          1.87180       -0.00119        0.00000
C          1.18213       -1.20346        0.00000
H          1.71237       -2.10841        0.00000
C         -0.19788       -1.18969        0.00000
H         -0.72762       -2.10907        0.00000
C         -0.88820       -0.00194        0.00000
C         -2.38820       -0.00235        0.00000
H         -2.75820       -0.00245        1.03238
H         -2.75844        0.89558       -0.51619
H         -2.75795       -0.90047       -0.51619
C         -0.19853        1.20033        0.00000
H         -0.72877        2.10528        0.00000
C          1.18147        1.20071        0.00000
H          1.71123        2.10595        0.00000
26
Ad.log	Energy: -245182.6302416
H         -2.15577       -1.52322       -0.00000
C         -1.25762       -0.88813       -0.00000
C         -1.25762       -0.00479        1.25865
H         -2.15577        0.64185        1.25865
H         -1.25354       -0.63410        2.15668
C         -0.00021        0.88433        1.25865
H         -0.00021        1.52519        2.14961
C         -0.00021       -1.78303       -0.00000
H          0.00387       -2.41234        0.89803
H          0.00387       -2.41234       -0.89803
C          1.25719       -0.89390        0.00000
C          1.25719        0.00676        1.25865
H          1.25719       -0.63410        2.14961
H          2.15534        0.64185        1.25865
H          2.15534       -1.52322        0.00000
C          1.25719        0.00676       -1.25865
H          2.15534        0.64185       -1.25865
H          1.25719       -0.63410       -2.14961
C         -0.00021        0.88433       -1.25865
C         -0.00021        1.78500        0.00000
H          0.89793        2.42008        0.00000
H         -0.89836        2.41431        0.00000
H         -0.00021        1.52519       -2.14961
C         -1.25762       -0.00479       -1.25865
H         -2.15577        0.64185       -1.25865
H         -1.25354       -0.63410       -2.15668
15
Bn.log	Energy: -170407.2306028
H          2.75516       -0.00279        1.03738
C          2.38860       -0.00219        0.00025
H          2.75345        0.89524       -0.52062
H          2.75052       -0.90081       -0.52062
C          0.88860        0.00025        0.00009
C          0.20056        1.20345        0.00002
H          0.73538        2.11475        0.00243
C         -1.17946        1.19156       -0.00012
H         -1.71128        2.11874       -0.00253
C         -1.87139        0.00475       -0.00019
H         -2.93473        0.00648        0.00441
C         -1.18335       -1.19846       -0.00012
H         -1.71817       -2.10976       -0.00253
C          0.19664       -1.20071        0.00002
H          0.72849       -2.11374        0.00243
23
CEt3.log	Energy: -173430.0968348
H          0.35935        0.50499        1.52415
C          0.15376        0.02949        0.55377
C         -0.97340       -1.01087        0.72425
H         -0.66052       -1.77846        1.44217
H         -1.88300       -0.51315        1.08116
C         -1.26123       -1.67657       -0.63428
H         -2.06169       -2.41761       -0.52100
H         -1.57578       -0.90434       -1.36546
H         -0.34367       -2.17961       -1.00161
C         -0.28736        1.10172       -0.45630
H          0.52125        1.84640       -0.58443
H         -0.49295        0.62623       -1.42668
C         -1.55964        1.80292        0.04779
H         -1.87439        2.56618       -0.67895
H         -2.36029        1.05292        0.16551
H         -1.35405        2.27841        1.01817
C          1.42604       -0.67171        0.04968
H          1.73892       -1.43929        0.76760
H          1.22045       -1.14720       -0.92070
C          2.55320        0.36866       -0.12080
H          3.46094       -0.13339       -0.48654
H          2.23845        1.13192       -0.84755
H          2.75879        0.84415        0.84958
14
CH2iPr.log	Energy:  -99433.0246150
H         -1.79822       -1.20747       -0.26138
C         -1.43372       -0.23707        0.10666
H         -2.08937        0.56708       -0.25841
H         -1.43020       -0.23613        1.20657
C          0.00138       -0.00198       -0.41018
H          0.00117        0.00591       -1.50673
C          0.51168        1.35658        0.10508
H          1.53162        1.53073       -0.25836
H         -0.15271        2.16493       -0.26242
H          0.51165        1.35540        1.21409
C          0.92123       -1.12115        0.10542
H          1.94117       -0.94700       -0.25802
H          0.92475       -1.12022        1.20532
H          0.55673       -2.09155       -0.26262
17
CH2tBu.log	Energy: -124103.2226183
H         -1.90619        1.03912        0.00000
C         -1.54111        0.00147        0.00000
H         -1.90524       -0.51888        0.89803
H         -1.90524       -0.51888       -0.89803
C          0.00223        0.00381       -0.00000
C          0.51333        0.72428        1.25865
H          1.60999        0.71788        1.25865
H          0.14826        1.76193        1.25865
H          0.14920        0.20393        2.15668
C          0.51333       -1.44890        0.00000
H          1.60999       -1.45530       -0.00000
H          0.14253       -1.97159        0.90510
H          0.14253       -1.97159       -0.90510
C          0.51333        0.72428       -1.25865
H          1.60999        0.71788       -1.25865
H          0.14920        0.20393       -2.15668
H          0.14826        1.76193       -1.25865
17
CHEt2.log	Energy: -124096.5412990
H          0.48674        1.73313       -0.75628
C         -0.00139        1.09848       -0.00200
H         -0.49104        1.72822        0.75058
C         -1.05617        0.21294       -0.68593
H         -1.81247        0.84068       -1.17218
H         -0.56650       -0.43413       -1.43848
C         -1.73955       -0.67558        0.37007
H         -2.48617       -1.31799       -0.11404
H         -0.97953       -1.31486        0.86361
H         -2.22920       -0.04583        1.12265
C          1.05551        0.21732        0.68433
H          1.80586        0.84820        1.17572
H          0.56738       -0.41733        1.43861
C          1.74104       -0.67817       -0.36926
H          2.49290       -1.31169        0.12385
H          0.98625       -1.31482       -0.85380
H          2.22917       -0.04352       -1.12354
18
cHex.log	Energy: -148015.1379720
H         -1.45655        2.01783       -0.10715
C         -0.84895        1.17705        0.25880
H         -0.84821        1.17225        1.35870
C         -1.44758       -0.14802       -0.25863
H         -2.47399       -0.25770        0.11144
H         -1.44280       -0.15086       -1.35520
C         -0.59694       -1.32510        0.25371
H         -0.59599       -1.32578        1.36271
H         -1.01649       -2.27075       -0.11017
C          0.85738       -1.17551       -0.25421
H          1.46498       -2.01628        0.11174
H          0.84830       -1.17567       -1.35167
C          1.44193        0.14812        0.25322
H          1.44289        0.14744        1.36223
H          2.47409        0.25429       -0.10440
C          0.59130        1.32521       -0.25911
H          1.02492        2.27230        0.11477
H          0.59608        1.32237       -1.35568
23
CHiPr2.log	Energy: -173436.4521653
H          0.17435       -1.39718       -0.88576
C         -0.00049       -0.76479       -0.00286
H         -0.17590       -1.39678        0.87606
C          1.23439        0.11724        0.24533
H          1.05954        0.74963        1.12823
C          2.46849       -0.76742        0.48798
H          3.34876       -0.13329        0.66908
H          2.28534       -1.40520        1.36951
H          2.64333       -1.39981       -0.39492
C          1.47996        1.01589       -0.98512
H          2.36024        1.65003       -0.80402
H          1.65481        0.38350       -1.86802
H          0.59866        1.65190       -1.15422
C         -1.23460        0.11987       -0.24551
H         -1.05918        0.76919       -1.12438
C         -2.46948       -0.76215       -0.49371
H         -3.35078       -0.12614       -0.66281
H         -2.29463       -1.39454       -1.37661
H         -2.63875       -1.39994        0.39058
C         -1.47938        1.00522        0.99055
H         -2.35295        1.64701        0.81884
H         -1.65479        0.37322        1.86947
H         -0.59137        1.64513        1.16904
23
CHPr2.log	Energy: -173434.7504531
H          0.42003        2.19655       -0.79555
C         -0.00039        1.56193       -0.00151
H         -0.42116        2.19170        0.79161
C         -1.11224        0.67784       -0.59028
H         -1.90780        1.30662       -1.00768
H         -0.69146        0.03075       -1.38339
C         -1.70083       -0.21063        0.52137
H         -0.90093       -0.85096        0.94570
H         -2.12160        0.41914        1.31449
C         -2.80835       -1.10627       -0.06047
H         -3.22876       -1.74089        0.73357
H         -3.60008       -0.47172       -0.48508
H         -2.39190       -1.74182       -0.86050
C          1.11197        0.67933        0.58856
H          1.90335        1.30918        1.01224
H          0.69156        0.04471        1.38260
C          1.70106       -0.21621       -0.52180
H          0.90586       -0.85182       -0.93827
H          2.12148        0.41842       -1.31584
C          2.80909       -1.10459        0.06135
H          3.22604       -1.74013       -0.72454
H          3.60480       -0.46896        0.49195
H          2.38867       -1.73921        0.85540
8
ethane
H          0.00000        0.00000        0.00000
C          0.00000        0.00000       -1.10000
H         -1.00000        0.27000       -1.47000
H          0.27000       -1.00000       -1.47000
C          1.03000        1.03000       -1.61000
H          1.03000        1.03000       -2.71000
H          2.03000        0.76000       -1.25000
H          0.76000        2.03000       -1.25000
2
H.log	Energy:    -734.1254509
H          0.00000        0.00000        0.33000
H          0.00000        0.00000       -0.33000
11
iPr.log	Energy:  -74763.2043920
H         -0.89846        1.24819       -0.00000
C         -0.00031        0.61310       -0.00000
H          0.89783        1.24241       -0.00000
C         -0.00031       -0.27024        1.25865
H          0.89783       -0.90533        1.25865
H          0.00377        0.35907        2.15668
H         -0.89846       -0.91688        1.25865
C         -0.00031       -0.27024       -1.25865
H          0.89783       -0.90533       -1.25865
H         -0.89846       -0.91688       -1.25865
H          0.00377        0.35907       -2.15668
5
me
H          0.00000        0.00000        0.00000
C          0.00000        0.00000       -1.10000
H          0.73000        0.73000       -1.47000
H         -1.00000        0.27000       -1.47000
H          0.27000       -1.00000       -1.47000
14
nbu
H          0.00000        0.00000        0.00000
C          0.00000        0.00000       -1.10000
H         -1.00000        0.27000       -1.47000
H          0.27000       -1.00000       -1.47000
C          1.03000        1.03000       -1.61000
H          2.03000        0.76000       -1.25000
H          0.76000        2.03000       -1.25000
C          1.03000        1.03000       -3.15000
H          0.02000        1.30000       -3.52000
H          1.30000        0.02000       -3.52000
C          2.05000        2.05000       -3.67000
H          2.05000        2.05000       -4.77000
H          3.06000        1.78000       -3.30000
H          1.78000        3.06000       -3.30000
11
nPr.log	Energy:  -74762.9427049
H         -2.15581        0.36103       -0.00000
C         -1.25831       -0.27496       -0.00000
H         -1.25487       -0.91005        0.89803
H         -1.25487       -0.91005       -0.89803
C         -0.00000        0.61865       -0.00000
H          0.00472        1.24796       -0.89803
H          0.00472        1.24796        0.89803
C          1.25650       -0.27174        0.00000
H          2.15529        0.35666        0.00000
H          1.25585       -0.91260        0.90510
H          1.25585       -0.91260       -0.90510
12
Ph.log	Energy: -145734.4886147
H         -2.11516        1.21644        0.00000
C         -1.19584        0.68875        0.00000
C          0.00101        1.38779       -0.00000
H         -0.00808        2.43661        0.00000
C          1.19081        0.68853       -0.00000
H          2.10809        1.22192       -0.00000
C          1.19785       -0.68524       -0.00000
H          2.11717       -1.21293       -0.00000
C          0.00101       -1.38428       -0.00000
H          0.01009       -2.43310       -0.00000
C         -1.19584       -0.69729        0.00000
H         -2.10608       -1.21842        0.00000
14
tBu.log	Energy:  -99433.3255711
H          1.23147        0.86721       -0.00000
C          0.33332        0.23213       -0.00000
C         -0.92408        1.12702        0.00000
H         -1.82223        0.49194        0.00000
H         -0.92816        1.75633        0.89803
H         -0.92816        1.75633       -0.89803
C          0.33332       -0.65122       -1.25865
H         -0.56482       -1.28630       -1.25865
H          0.32924       -0.02191       -2.15668
H          1.23147       -1.29785       -1.25865
C          0.33332       -0.65122        1.25865
H         -0.56482       -1.28630        1.25865
H          1.23147       -1.29785        1.25865
H          0.32924       -0.02191        2.15668
