14
nbu
H          0.00000        0.00000        0.00000
C          0.00000        0.00000       -1.10000
H         -1.00000        0.27000       -1.47000
H          0.27000       -1.00000       -1.47000
C          1.03000        1.03000       -1.61000
H          2.03000        0.76000       -1.25000
H          0.76000        2.03000       -1.25000
C          1.03000        1.03000       -3.15000
H          0.02000        1.30000       -3.52000
H          1.30000        0.02000       -3.52000
C          2.05000        2.05000       -3.67000
H          2.05000        2.05000       -4.77000
H          3.06000        1.78000       -3.30000
H          1.78000        3.06000       -3.30000
